
18 19 21 24 21 6 21 28 18 28 4 28 13 13 28 18 13 20 24 24 18 21 10 24 10 18 24 19 4 21 19 19 4 21 28 6 20 20 24 21 18 20 6 4 20 19 13 21 19 20 24 24 21 21 20 6 25 20 18 25 4 17 18 20 13 25 10 17 19 25 18 6 19 20 10 10 20 10 20 24 10 17 20 25 4 13 19 10 24 25 28 6 25 25 17 13 28 6 17 28 28 21 25 18 4 24 4 24 18 13 19 4 18 6 6 20 28 25 17 20 19 25 17 19 4 24 21 28 19 17 28 24 25 20 13 20 13 13 28 10 6 18 28 25 25 10 24 21 18 25 24 17 10 17 20 25 21 21 13 13 13 17 10 21 10 17 13 4 13 21 13 20 19 20 4 21 24 10 4 10 21 21 21 19 6 20 28 10 17 21 21 21 6 4 25 6 18 21 10 19 
